p cnf 200 1110
-101 97 0
-101 90 0
-101 25 0
-101 -30 0
-101 -77 0
-101 -83 0
-101 88 0
-101 -94 0
-101 -56 0
-101 22 0
101 -97 -90 -25 30 77 83 -88 94 56 -22 0
-102 -89 0
-102 73 0
-102 45 0
-102 1 0
-102 -52 0
-102 47 0
-102 -6 0
-102 16 0
-102 -13 0
-102 63 0
102 89 -73 -45 -1 52 -47 6 -16 13 -63 0
-103 -54 0
-103 12 0
-103 -72 0
-103 18 0
-103 -52 0
-103 -41 0
-103 -24 0
-103 27 0
-103 -67 0
-103 44 0
103 54 -12 72 -18 52 41 24 -27 67 -44 0
-104 7 0
-104 -29 0
-104 84 0
-104 -77 0
-104 -76 0
-104 -96 0
-104 -37 0
-104 9 0
-104 -51 0
-104 -83 0
104 -7 29 -84 77 76 96 37 -9 51 83 0
-105 5 0
-105 -41 0
-105 -32 0
-105 -27 0
-105 77 0
-105 89 0
-105 63 0
-105 -90 0
-105 96 0
-105 62 0
105 -5 41 32 27 -77 -89 -63 90 -96 -62 0
-106 -54 0
-106 -32 0
-106 11 0
-106 63 0
-106 22 0
-106 85 0
-106 -61 0
-106 66 0
-106 -96 0
-106 -80 0
106 54 32 -11 -63 -22 -85 61 -66 96 80 0
-107 7 0
-107 -40 0
-107 21 0
-107 -53 0
-107 -25 0
-107 -37 0
-107 17 0
-107 -31 0
-107 95 0
-107 100 0
107 -7 40 -21 53 25 37 -17 31 -95 -100 0
-108 -72 0
-108 -51 0
-108 -45 0
-108 9 0
-108 92 0
-108 47 0
-108 -75 0
-108 33 0
-108 8 0
-108 3 0
108 72 51 45 -9 -92 -47 75 -33 -8 -3 0
-109 -4 0
-109 7 0
-109 -23 0
-109 -74 0
-109 95 0
-109 -62 0
-109 21 0
-109 -46 0
-109 45 0
-109 68 0
109 4 -7 23 74 -95 62 -21 46 -45 -68 0
-110 4 0
-110 7 0
-110 11 0
-110 44 0
-110 16 0
-110 -67 0
-110 -62 0
-110 -24 0
-110 35 0
-110 69 0
110 -4 -7 -11 -44 -16 67 62 24 -35 -69 0
101 102 103 104 105 106 107 108 109 110 0
-111 -8 0
-111 41 0
-111 -96 0
-111 -68 0
-111 60 0
-111 -64 0
-111 32 0
-111 -24 0
-111 -77 0
-111 79 0
111 8 -41 96 68 -60 64 -32 24 77 -79 0
-112 49 0
-112 -96 0
-112 24 0
-112 -87 0
-112 -8 0
-112 2 0
-112 69 0
-112 40 0
-112 90 0
-112 -37 0
112 -49 96 -24 87 8 -2 -69 -40 -90 37 0
-113 88 0
-113 -76 0
-113 36 0
-113 41 0
-113 13 0
-113 22 0
-113 -12 0
-113 -20 0
-113 44 0
-113 24 0
113 -88 76 -36 -41 -13 -22 12 20 -44 -24 0
-114 82 0
-114 16 0
-114 -53 0
-114 -4 0
-114 -31 0
-114 97 0
-114 96 0
-114 46 0
-114 -29 0
-114 -99 0
114 -82 -16 53 4 31 -97 -96 -46 29 99 0
-115 -90 0
-115 3 0
-115 32 0
-115 98 0
-115 77 0
-115 15 0
-115 -46 0
-115 21 0
-115 -75 0
-115 -92 0
115 90 -3 -32 -98 -77 -15 46 -21 75 92 0
-116 48 0
-116 71 0
-116 52 0
-116 24 0
-116 26 0
-116 -40 0
-116 3 0
-116 -31 0
-116 62 0
-116 -11 0
116 -48 -71 -52 -24 -26 40 -3 31 -62 11 0
-117 88 0
-117 -65 0
-117 -25 0
-117 -61 0
-117 -33 0
-117 -76 0
-117 72 0
-117 37 0
-117 71 0
-117 96 0
117 -88 65 25 61 33 76 -72 -37 -71 -96 0
-118 51 0
-118 -69 0
-118 49 0
-118 92 0
-118 93 0
-118 -27 0
-118 85 0
-118 -59 0
-118 -14 0
-118 -9 0
118 -51 69 -49 -92 -93 27 -85 59 14 9 0
-119 53 0
-119 44 0
-119 47 0
-119 55 0
-119 27 0
-119 -88 0
-119 17 0
-119 28 0
-119 -80 0
-119 -76 0
119 -53 -44 -47 -55 -27 88 -17 -28 80 76 0
-120 -9 0
-120 53 0
-120 -20 0
-120 12 0
-120 -37 0
-120 60 0
-120 27 0
-120 92 0
-120 77 0
-120 86 0
120 9 -53 20 -12 37 -60 -27 -92 -77 -86 0
111 112 113 114 115 116 117 118 119 120 0
-121 73 0
-121 -60 0
-121 17 0
-121 -75 0
-121 -88 0
-121 -40 0
-121 -78 0
-121 -6 0
-121 68 0
-121 36 0
121 -73 60 -17 75 88 40 78 6 -68 -36 0
-122 80 0
-122 40 0
-122 64 0
-122 88 0
-122 -19 0
-122 -72 0
-122 17 0
-122 -2 0
-122 48 0
-122 -99 0
122 -80 -40 -64 -88 19 72 -17 2 -48 99 0
-123 -33 0
-123 -2 0
-123 58 0
-123 -29 0
-123 -27 0
-123 -89 0
-123 -95 0
-123 -59 0
-123 -63 0
-123 -26 0
123 33 2 -58 29 27 89 95 59 63 26 0
-124 -47 0
-124 -55 0
-124 6 0
-124 31 0
-124 77 0
-124 70 0
-124 -4 0
-124 96 0
-124 100 0
-124 -74 0
124 47 55 -6 -31 -77 -70 4 -96 -100 74 0
-125 -81 0
-125 -23 0
-125 -19 0
-125 -31 0
-125 16 0
-125 -74 0
-125 -1 0
-125 -50 0
-125 -70 0
-125 -51 0
125 81 23 19 31 -16 74 1 50 70 51 0
-126 29 0
-126 -92 0
-126 79 0
-126 63 0
-126 -90 0
-126 -95 0
-126 -30 0
-126 10 0
-126 71 0
-126 41 0
126 -29 92 -79 -63 90 95 30 -10 -71 -41 0
-127 -93 0
-127 60 0
-127 35 0
-127 62 0
-127 -23 0
-127 -26 0
-127 18 0
-127 -22 0
-127 40 0
-127 85 0
127 93 -60 -35 -62 23 26 -18 22 -40 -85 0
-128 -2 0
-128 96 0
-128 -76 0
-128 6 0
-128 -7 0
-128 -52 0
-128 40 0
-128 12 0
-128 19 0
-128 41 0
128 2 -96 76 -6 7 52 -40 -12 -19 -41 0
-129 -46 0
-129 -48 0
-129 -6 0
-129 3 0
-129 44 0
-129 -72 0
-129 39 0
-129 -66 0
-129 -57 0
-129 19 0
129 46 48 6 -3 -44 72 -39 66 57 -19 0
-130 88 0
-130 65 0
-130 39 0
-130 34 0
-130 -89 0
-130 75 0
-130 83 0
-130 25 0
-130 69 0
-130 -32 0
130 -88 -65 -39 -34 89 -75 -83 -25 -69 32 0
121 122 123 124 125 126 127 128 129 130 0
-131 16 0
-131 78 0
-131 -86 0
-131 -14 0
-131 6 0
-131 55 0
-131 -76 0
-131 -57 0
-131 -43 0
-131 -21 0
131 -16 -78 86 14 -6 -55 76 57 43 21 0
-132 -40 0
-132 9 0
-132 -30 0
-132 27 0
-132 57 0
-132 86 0
-132 65 0
-132 -60 0
-132 -22 0
-132 42 0
132 40 -9 30 -27 -57 -86 -65 60 22 -42 0
-133 -8 0
-133 78 0
-133 29 0
-133 -10 0
-133 -4 0
-133 44 0
-133 51 0
-133 -46 0
-133 17 0
-133 36 0
133 8 -78 -29 10 4 -44 -51 46 -17 -36 0
-134 -21 0
-134 -88 0
-134 -15 0
-134 41 0
-134 -80 0
-134 93 0
-134 6 0
-134 69 0
-134 49 0
-134 44 0
134 21 88 15 -41 80 -93 -6 -69 -49 -44 0
-135 -5 0
-135 -71 0
-135 81 0
-135 -36 0
-135 -46 0
-135 -19 0
-135 -26 0
-135 -34 0
-135 27 0
-135 52 0
135 5 71 -81 36 46 19 26 34 -27 -52 0
-136 -76 0
-136 36 0
-136 -42 0
-136 -96 0
-136 25 0
-136 38 0
-136 49 0
-136 92 0
-136 -77 0
-136 -4 0
136 76 -36 42 96 -25 -38 -49 -92 77 4 0
-137 58 0
-137 71 0
-137 41 0
-137 -30 0
-137 17 0
-137 91 0
-137 -99 0
-137 -54 0
-137 -80 0
-137 60 0
137 -58 -71 -41 30 -17 -91 99 54 80 -60 0
-138 -20 0
-138 -49 0
-138 -13 0
-138 18 0
-138 -32 0
-138 2 0
-138 -92 0
-138 22 0
-138 -33 0
-138 80 0
138 20 49 13 -18 32 -2 92 -22 33 -80 0
-139 -36 0
-139 1 0
-139 8 0
-139 12 0
-139 -82 0
-139 -71 0
-139 38 0
-139 52 0
-139 29 0
-139 49 0
139 36 -1 -8 -12 82 71 -38 -52 -29 -49 0
-140 60 0
-140 -89 0
-140 51 0
-140 87 0
-140 -75 0
-140 57 0
-140 -81 0
-140 14 0
-140 -67 0
-140 -17 0
140 -60 89 -51 -87 75 -57 81 -14 67 17 0
131 132 133 134 135 136 137 138 139 140 0
-141 -12 0
-141 -96 0
-141 3 0
-141 5 0
-141 -45 0
-141 23 0
-141 -25 0
-141 -13 0
-141 -10 0
-141 55 0
141 12 96 -3 -5 45 -23 25 13 10 -55 0
-142 -16 0
-142 -11 0
-142 -77 0
-142 -24 0
-142 74 0
-142 -53 0
-142 -37 0
-142 98 0
-142 -63 0
-142 75 0
142 16 11 77 24 -74 53 37 -98 63 -75 0
-143 15 0
-143 94 0
-143 85 0
-143 -28 0
-143 -70 0
-143 -1 0
-143 93 0
-143 -42 0
-143 -11 0
-143 -51 0
143 -15 -94 -85 28 70 1 -93 42 11 51 0
-144 -68 0
-144 -52 0
-144 46 0
-144 5 0
-144 79 0
-144 -75 0
-144 -10 0
-144 -23 0
-144 87 0
-144 -50 0
144 68 52 -46 -5 -79 75 10 23 -87 50 0
-145 -20 0
-145 63 0
-145 77 0
-145 -24 0
-145 -4 0
-145 -39 0
-145 90 0
-145 5 0
-145 74 0
-145 22 0
145 20 -63 -77 24 4 39 -90 -5 -74 -22 0
-146 -11 0
-146 32 0
-146 -18 0
-146 -99 0
-146 10 0
-146 -90 0
-146 15 0
-146 -35 0
-146 -91 0
-146 -13 0
146 11 -32 18 99 -10 90 -15 35 91 13 0
-147 -68 0
-147 55 0
-147 -88 0
-147 2 0
-147 -78 0
-147 23 0
-147 92 0
-147 11 0
-147 -54 0
-147 -8 0
147 68 -55 88 -2 78 -23 -92 -11 54 8 0
-148 -15 0
-148 -32 0
-148 17 0
-148 -95 0
-148 -39 0
-148 42 0
-148 -34 0
-148 43 0
-148 -64 0
-148 75 0
148 15 32 -17 95 39 -42 34 -43 64 -75 0
-149 97 0
-149 74 0
-149 -9 0
-149 19 0
-149 -52 0
-149 3 0
-149 44 0
-149 18 0
-149 56 0
-149 -25 0
149 -97 -74 9 -19 52 -3 -44 -18 -56 25 0
-150 62 0
-150 86 0
-150 27 0
-150 -51 0
-150 -92 0
-150 -33 0
-150 85 0
-150 29 0
-150 -79 0
-150 -72 0
150 -62 -86 -27 51 92 33 -85 -29 79 72 0
141 142 143 144 145 146 147 148 149 150 0
-151 -73 0
-151 30 0
-151 5 0
-151 50 0
-151 -58 0
-151 7 0
-151 -24 0
-151 -43 0
-151 -63 0
-151 51 0
151 73 -30 -5 -50 58 -7 24 43 63 -51 0
-152 30 0
-152 24 0
-152 21 0
-152 -47 0
-152 -91 0
-152 -68 0
-152 70 0
-152 -54 0
-152 62 0
-152 87 0
152 -30 -24 -21 47 91 68 -70 54 -62 -87 0
-153 -36 0
-153 -43 0
-153 -77 0
-153 -20 0
-153 89 0
-153 -69 0
-153 -80 0
-153 79 0
-153 8 0
-153 -97 0
153 36 43 77 20 -89 69 80 -79 -8 97 0
-154 53 0
-154 76 0
-154 46 0
-154 -11 0
-154 -48 0
-154 58 0
-154 18 0
-154 -49 0
-154 95 0
-154 -64 0
154 -53 -76 -46 11 48 -58 -18 49 -95 64 0
-155 37 0
-155 -70 0
-155 -75 0
-155 -90 0
-155 98 0
-155 -84 0
-155 1 0
-155 49 0
-155 94 0
-155 33 0
155 -37 70 75 90 -98 84 -1 -49 -94 -33 0
-156 -50 0
-156 -14 0
-156 85 0
-156 -98 0
-156 11 0
-156 43 0
-156 -27 0
-156 82 0
-156 77 0
-156 -41 0
156 50 14 -85 98 -11 -43 27 -82 -77 41 0
-157 -78 0
-157 -11 0
-157 29 0
-157 -2 0
-157 -87 0
-157 -81 0
-157 -92 0
-157 68 0
-157 60 0
-157 56 0
157 78 11 -29 2 87 81 92 -68 -60 -56 0
-158 -64 0
-158 8 0
-158 -10 0
-158 -9 0
-158 5 0
-158 -43 0
-158 -74 0
-158 -17 0
-158 -88 0
-158 12 0
158 64 -8 10 9 -5 43 74 17 88 -12 0
-159 26 0
-159 -53 0
-159 -7 0
-159 23 0
-159 -45 0
-159 44 0
-159 -22 0
-159 35 0
-159 32 0
-159 -68 0
159 -26 53 7 -23 45 -44 22 -35 -32 68 0
-160 -71 0
-160 -13 0
-160 12 0
-160 -80 0
-160 -51 0
-160 98 0
-160 -46 0
-160 -10 0
-160 94 0
-160 -100 0
160 71 13 -12 80 51 -98 46 10 -94 100 0
151 152 153 154 155 156 157 158 159 160 0
-161 40 0
-161 13 0
-161 15 0
-161 23 0
-161 -48 0
-161 19 0
-161 -70 0
-161 17 0
-161 41 0
-161 -44 0
161 -40 -13 -15 -23 48 -19 70 -17 -41 44 0
-162 -64 0
-162 100 0
-162 -40 0
-162 -28 0
-162 -73 0
-162 18 0
-162 -1 0
-162 42 0
-162 11 0
-162 50 0
162 64 -100 40 28 73 -18 1 -42 -11 -50 0
-163 -53 0
-163 -9 0
-163 -85 0
-163 -55 0
-163 -2 0
-163 -31 0
-163 -67 0
-163 36 0
-163 82 0
-163 30 0
163 53 9 85 55 2 31 67 -36 -82 -30 0
-164 -7 0
-164 -11 0
-164 -52 0
-164 -35 0
-164 -21 0
-164 -56 0
-164 29 0
-164 -30 0
-164 -75 0
-164 -22 0
164 7 11 52 35 21 56 -29 30 75 22 0
-165 -75 0
-165 -83 0
-165 29 0
-165 -30 0
-165 33 0
-165 -31 0
-165 -42 0
-165 -25 0
-165 49 0
-165 -43 0
165 75 83 -29 30 -33 31 42 25 -49 43 0
-166 93 0
-166 58 0
-166 67 0
-166 -71 0
-166 -68 0
-166 -33 0
-166 84 0
-166 -72 0
-166 32 0
-166 -61 0
166 -93 -58 -67 71 68 33 -84 72 -32 61 0
-167 93 0
-167 -10 0
-167 -26 0
-167 34 0
-167 15 0
-167 -18 0
-167 3 0
-167 -79 0
-167 89 0
-167 -69 0
167 -93 10 26 -34 -15 18 -3 79 -89 69 0
-168 21 0
-168 -69 0
-168 -73 0
-168 -58 0
-168 -19 0
-168 66 0
-168 -17 0
-168 79 0
-168 -76 0
-168 34 0
168 -21 69 73 58 19 -66 17 -79 76 -34 0
-169 27 0
-169 -60 0
-169 88 0
-169 -84 0
-169 21 0
-169 18 0
-169 61 0
-169 -50 0
-169 74 0
-169 37 0
169 -27 60 -88 84 -21 -18 -61 50 -74 -37 0
-170 -98 0
-170 100 0
-170 -70 0
-170 -66 0
-170 -43 0
-170 48 0
-170 41 0
-170 13 0
-170 -51 0
-170 77 0
170 98 -100 70 66 43 -48 -41 -13 51 -77 0
161 162 163 164 165 166 167 168 169 170 0
-171 -24 0
-171 -87 0
-171 -2 0
-171 100 0
-171 80 0
-171 11 0
-171 8 0
-171 57 0
-171 -90 0
-171 -23 0
171 24 87 2 -100 -80 -11 -8 -57 90 23 0
-172 28 0
-172 90 0
-172 -45 0
-172 -57 0
-172 54 0
-172 62 0
-172 36 0
-172 -4 0
-172 -60 0
-172 7 0
172 -28 -90 45 57 -54 -62 -36 4 60 -7 0
-173 96 0
-173 -10 0
-173 -50 0
-173 74 0
-173 76 0
-173 -31 0
-173 -62 0
-173 60 0
-173 70 0
-173 92 0
173 -96 10 50 -74 -76 31 62 -60 -70 -92 0
-174 -73 0
-174 16 0
-174 14 0
-174 61 0
-174 -100 0
-174 2 0
-174 29 0
-174 23 0
-174 44 0
-174 -92 0
174 73 -16 -14 -61 100 -2 -29 -23 -44 92 0
-175 83 0
-175 -5 0
-175 62 0
-175 -89 0
-175 -27 0
-175 35 0
-175 39 0
-175 -37 0
-175 -3 0
-175 -58 0
175 -83 5 -62 89 27 -35 -39 37 3 58 0
-176 93 0
-176 -13 0
-176 -1 0
-176 -60 0
-176 39 0
-176 65 0
-176 -55 0
-176 14 0
-176 -76 0
-176 68 0
176 -93 13 1 60 -39 -65 55 -14 76 -68 0
-177 83 0
-177 -4 0
-177 95 0
-177 65 0
-177 -3 0
-177 31 0
-177 -8 0
-177 -33 0
-177 -89 0
-177 -27 0
177 -83 4 -95 -65 3 -31 8 33 89 27 0
-178 34 0
-178 -90 0
-178 -88 0
-178 -96 0
-178 18 0
-178 -33 0
-178 -85 0
-178 -49 0
-178 -42 0
-178 -21 0
178 -34 90 88 96 -18 33 85 49 42 21 0
-179 42 0
-179 60 0
-179 -55 0
-179 -2 0
-179 -9 0
-179 46 0
-179 1 0
-179 58 0
-179 85 0
-179 73 0
179 -42 -60 55 2 9 -46 -1 -58 -85 -73 0
-180 78 0
-180 2 0
-180 -64 0
-180 20 0
-180 59 0
-180 21 0
-180 -23 0
-180 17 0
-180 45 0
-180 -99 0
180 -78 -2 64 -20 -59 -21 23 -17 -45 99 0
171 172 173 174 175 176 177 178 179 180 0
-181 29 0
-181 46 0
-181 90 0
-181 -14 0
-181 16 0
-181 -45 0
-181 -83 0
-181 -89 0
-181 -84 0
-181 -55 0
181 -29 -46 -90 14 -16 45 83 89 84 55 0
-182 72 0
-182 -7 0
-182 -60 0
-182 53 0
-182 89 0
-182 -42 0
-182 33 0
-182 73 0
-182 40 0
-182 15 0
182 -72 7 60 -53 -89 42 -33 -73 -40 -15 0
-183 -34 0
-183 -87 0
-183 13 0
-183 41 0
-183 71 0
-183 58 0
-183 67 0
-183 80 0
-183 53 0
-183 -79 0
183 34 87 -13 -41 -71 -58 -67 -80 -53 79 0
-184 13 0
-184 -34 0
-184 80 0
-184 -53 0
-184 -86 0
-184 61 0
-184 19 0
-184 71 0
-184 68 0
-184 95 0
184 -13 34 -80 53 86 -61 -19 -71 -68 -95 0
-185 -55 0
-185 -11 0
-185 8 0
-185 27 0
-185 76 0
-185 28 0
-185 -48 0
-185 10 0
-185 -6 0
-185 -65 0
185 55 11 -8 -27 -76 -28 48 -10 6 65 0
-186 -86 0
-186 -63 0
-186 -12 0
-186 95 0
-186 48 0
-186 -33 0
-186 -100 0
-186 -58 0
-186 78 0
-186 -89 0
186 86 63 12 -95 -48 33 100 58 -78 89 0
-187 -44 0
-187 -68 0
-187 33 0
-187 85 0
-187 50 0
-187 -12 0
-187 -63 0
-187 38 0
-187 21 0
-187 -88 0
187 44 68 -33 -85 -50 12 63 -38 -21 88 0
-188 -43 0
-188 -62 0
-188 -85 0
-188 -11 0
-188 -37 0
-188 -38 0
-188 -67 0
-188 60 0
-188 -24 0
-188 84 0
188 43 62 85 11 37 38 67 -60 24 -84 0
-189 54 0
-189 -80 0
-189 58 0
-189 85 0
-189 -70 0
-189 59 0
-189 39 0
-189 28 0
-189 24 0
-189 99 0
189 -54 80 -58 -85 70 -59 -39 -28 -24 -99 0
-190 2 0
-190 53 0
-190 47 0
-190 98 0
-190 -50 0
-190 62 0
-190 -72 0
-190 48 0
-190 -17 0
-190 49 0
190 -2 -53 -47 -98 50 -62 72 -48 17 -49 0
181 182 183 184 185 186 187 188 189 190 0
-191 20 0
-191 -61 0
-191 -71 0
-191 -32 0
-191 -100 0
-191 -76 0
-191 51 0
-191 -14 0
-191 -6 0
-191 81 0
191 -20 61 71 32 100 76 -51 14 6 -81 0
-192 37 0
-192 -28 0
-192 39 0
-192 55 0
-192 -67 0
-192 -1 0
-192 6 0
-192 -49 0
-192 34 0
-192 13 0
192 -37 28 -39 -55 67 1 -6 49 -34 -13 0
-193 -75 0
-193 33 0
-193 -90 0
-193 17 0
-193 71 0
-193 53 0
-193 -49 0
-193 25 0
-193 -38 0
-193 -41 0
193 75 -33 90 -17 -71 -53 49 -25 38 41 0
-194 -57 0
-194 97 0
-194 -95 0
-194 6 0
-194 60 0
-194 -68 0
-194 -15 0
-194 24 0
-194 47 0
-194 82 0
194 57 -97 95 -6 -60 68 15 -24 -47 -82 0
-195 -41 0
-195 -24 0
-195 -64 0
-195 -95 0
-195 -59 0
-195 26 0
-195 -57 0
-195 44 0
-195 -52 0
-195 8 0
195 41 24 64 95 59 -26 57 -44 52 -8 0
-196 -51 0
-196 -37 0
-196 -95 0
-196 -68 0
-196 -93 0
-196 -69 0
-196 30 0
-196 -26 0
-196 64 0
-196 -88 0
196 51 37 95 68 93 69 -30 26 -64 88 0
-197 -4 0
-197 71 0
-197 -61 0
-197 -53 0
-197 48 0
-197 -19 0
-197 -79 0
-197 -75 0
-197 -45 0
-197 39 0
197 4 -71 61 53 -48 19 79 75 45 -39 0
-198 -36 0
-198 84 0
-198 -52 0
-198 -87 0
-198 -47 0
-198 -92 0
-198 7 0
-198 81 0
-198 -8 0
-198 82 0
198 36 -84 52 87 47 92 -7 -81 8 -82 0
-199 -17 0
-199 87 0
-199 27 0
-199 -83 0
-199 6 0
-199 -68 0
-199 64 0
-199 -8 0
-199 39 0
-199 -23 0
199 17 -87 -27 83 -6 68 -64 8 -39 23 0
-200 -21 0
-200 12 0
-200 17 0
-200 -66 0
-200 91 0
-200 -79 0
-200 5 0
-200 -40 0
-200 -58 0
-200 -56 0
200 21 -12 -17 66 -91 79 -5 40 58 56 0
191 192 193 194 195 196 197 198 199 200 0
